100 10
345 731
610 493
93 381
593 836
421 792
393 290
865 508
579 804
593 328
606 703
684 454
409 423
448 389
525 622
525 588
842 899
715 320
449 482
479 314
354 269
630 426
661 170
584 458
235 455
602 921
388 628
367 828
850 947
223 673
475 297
699 602
280 320
438 834
440 430
450 502
332 507
901 707
791 503
588 808
644 287
488 503
431 404
676 424
636 384
367 492
509 514
654 429
665 646
701 440
517 414
677 253
485 832
696 254
694 372
124 811
509 491
41 752
594 522
961 610
528 303
395 214
332 494
276 254
337 424
513 196
314 252
711 511
422 702
861 473
460 357
841 358
444 496
633 446
293 762
457 828
830 755
373 896
571 631
241 499
243 735
584 452
696 430
486 314
470 638
728 715
355 810
458 498
268 183
808 568
668 535
467 938
490 526
610 466
818 457
726 440
462 523
552 692
717 590
804 960
372 487
